S = 5;
start = [|0,0,10,0,17,0,0,5,0,0,0,0,0,3,0,0,0,18,0,0,25,0,0,1,24|
16,4,6,3,0,0,0,0,0,0,0,0,0,0,19,17,20,0,0,9,0,0,0,0,0|
0,0,0,25,0,0,13,0,0,12,0,7,0,10,0,0,0,11,19,0,0,0,0,5,4|
0,0,0,11,0,0,0,20,14,0,17,0,0,24,0,0,0,0,0,0,0,0,0,0,2|
0,22,0,0,0,0,4,24,0,0,0,0,13,0,0,0,0,0,0,0,20,0,0,0,0|
5,23,0,0,0,0,0,21,16,0,0,12,17,0,0,0,0,7,0,0,0,0,20,0,8|
0,0,0,10,0,0,0,0,0,0,0,0,0,0,0,0,0,0,0,0,0,24,0,0,0|
0,0,0,0,18,0,0,0,11,0,0,0,0,0,0,0,24,21,0,23,0,0,0,0,0|
0,0,0,0,0,0,0,0,0,0,0,0,0,0,0,0,15,13,0,0,0,0,0,0,0|
0,0,0,0,0,24,6,13,0,0,0,4,0,0,7,11,8,0,0,0,5,0,0,0,10|
0,0,0,1,0,0,0,3,20,0,9,17,0,15,0,18,0,14,0,24,16,0,25,0,0|
0,0,0,0,0,21,0,0,0,0,8,0,0,0,13,0,0,17,0,0,18,0,0,11,0|
0,0,0,0,0,0,0,0,0,0,0,21,19,2,0,0,0,0,6,0,0,0,0,0,13|
21,10,0,0,19,0,0,0,17,0,0,20,0,0,23,1,0,4,0,13,0,7,0,24,3|
0,0,17,0,0,0,0,0,23,0,0,0,0,0,0,0,0,0,0,0,10,0,2,20,21|
0,0,0,0,7,0,17,10,0,0,0,13,0,0,4,0,0,0,0,0,0,2,0,0,0|
25,0,0,0,3,22,0,0,0,0,14,0,0,19,0,0,0,0,24,0,0,13,0,0,0|
0,8,13,0,10,14,0,0,0,16,0,0,23,0,15,0,0,5,0,17,0,25,6,0,0|
0,2,0,0,0,0,0,1,0,0,10,0,21,0,0,0,0,0,0,0,0,0,0,0,9|
0,0,0,0,16,0,2,19,0,0,25,0,0,8,0,21,13,0,1,22,12,0,0,0,0|
19,1,0,0,9,11,20,0,0,0,0,0,24,12,0,0,17,0,3,0,0,0,0,15,0|
0,13,0,5,0,0,0,0,0,19,0,0,0,0,16,14,0,0,0,15,0,18,0,0,0|
0,21,0,4,20,18,0,0,0,25,7,19,0,0,0,0,0,0,10,0,0,0,0,0,0|
0,0,15,0,0,0,0,17,13,0,0,0,0,0,0,0,25,2,0,0,11,9,0,0,0|
0,0,0,22,14,0,0,0,0,0,0,15,0,0,3,20,11,0,0,16,0,0,17,0,25|];